LengthSchedulingHorizon=295;
nAttributes=2;
SetupCosts=[[0, 0], [3, 0], [0, 1]];
SetupTimes=[[0, 0], [3, 2], [2, 1]];
nMachines=2;
MinCap=[0, 0];
MaxCap=[59, 50];

initState=[1, 1];
nShifts=5;
ShiftStartTimes = [[7, 24, 85, 209, 286], [0, 0, 0, 0, 28]];
ShiftEndTimes = [[20, 78, 201, 274, 295], [0, 0, 0, 0, 241]];
nJobs=25;
EligibleMachines = [{1}, {1, 2}, {2}, {2}, {2}, {1}, {1, 2}, {1, 2}, {2}, {2}, {2}, {1}, {1}, {2}, {2}, {1, 2}, {2}, {1}, {1, 2}, {1}, {1}, {1}, {2}, {1}, {2}];
EarliestStart=[0, 13, 2, 4, 9, 5, 5, 2, 9, 1, 0, 1, 7, 13, 6, 0, 1, 1, 11, 8, 8, 13, 1, 7, 1];
LatestEnd=[16, 14, 15, 8, 10, 14, 9, 20, 24, 4, 2, 7, 13, 19, 14, 10, 6, 5, 12, 10, 20, 23, 10, 18, 8];
MinTime=[10, 1, 10, 3, 1, 8, 4, 10, 8, 2, 2, 4, 6, 5, 8, 9, 3, 3, 1, 2, 8, 10, 5, 6, 7];
MaxTime=[10, 10, 10, 10, 10, 10, 10, 10, 10, 10, 10, 10, 10, 10, 10, 10, 10, 10, 10, 10, 10, 10, 10, 10, 10];
JobSize=[1, 5, 4, 1, 1, 1, 1, 3, 5, 2, 4, 5, 3, 2, 2, 4, 1, 1, 3, 2, 2, 3, 4, 4, 4];
Attribute=[2, 2, 2, 2, 1, 1, 1, 2, 1, 2, 1, 1, 2, 1, 1, 1, 2, 2, 1, 2, 1, 1, 1, 2, 2];

upper_bound_integer_objective=750;
mult_factor_total_runtime=2;
mult_factor_finished_toolate=12;
mult_factor_total_setuptimes=0;
mult_factor_total_setupcosts=2;
running_time_bound=136;
min_duration=1;
max_duration=10;
max_setup_time=3;
max_setup_cost=3;
